!
!   GAMESS Calculation input file
!   
 $CONTRL SCFTYP=RHF RUNTYP=ENERGY MAXIT=30 COORD=UNIQUE MULT=1 ICHARG=0 $END
 $SYSTEM TIMLIM=525600 MEMORY=1000000 $END
 $STATPT OPTTOL=0.0005 NSTEP=99 IHREP = 20 $END
 $BASIS GBASIS=N21 NGAUSS=3 $END
 $SCF DIRSCF=.TRUE. $END
 $GUESS GUESS=HUCKEL $END
 $DATA 
Title
C1
 C           6.0  -0.6610069247  -0.0000000000  -0.0000000000
 C           6.0   0.6610069247   0.0000000000   0.0000000000
 H           1.0  -1.2290368957  -0.9116149102  -0.0000000000
 H           1.0  -1.2290368957   0.9116149102   0.0000000000
 H           1.0   1.2290368957  -0.9116149102  -0.0000000000
 H           1.0   1.2290368957   0.9116149102   0.0000000000
 $END
