!   File created by MacMolPlt 7.5
 $CONTRL SCFTYP=RHF RUNTYP=ENERGY EXETYP=RUN MAXIT=30 MULT=1 $END
 $SYSTEM TIMLIM=525600 MEMORY=1000000 $END
 $BASIS GBASIS=N21 NGAUSS=3 $END
 $GUESS GUESS=HUCKEL $END
 $SCF DIRSCF=.TRUE. $END
 $DATA 
methane
TD

C     6.0     0.00000     0.00000     0.00000
H     1.0     0.62520     0.62520     0.62520
 $END
