!
!   GAMESS Calculation input file
!   
 $CONTRL SCFTYP=RHF RUNTYP=ENERGY MAXIT=30 COORD=UNIQUE MULT=1 ICHARG=0 $END
 $SYSTEM TIMLIM=525600 MEMORY=1000000 $END
 $STATPT OPTTOL=0.0005 NSTEP=99 IHREP = 20 $END
 $BASIS GBASIS=N21 NGAUSS=3 $END
 $SCF DIRSCF=.TRUE. $END
 $GUESS GUESS=HUCKEL $END
 $DATA 
Neon
C1
Ne   10.0     0.00000     0.00000     0.00000
 $END
